lbl,CUST NO.,READY TIME,XCOORD.,YCOORD.,DEMAND,DUE DATE,SERVICE TIME
8,594,86,150,64,10,143,90
8,291,156,150,56,20,212,90
8,575,255,144,59,10,306,90
8,98,326,173,72,10,377,90
8,239,338,142,57,10,410,90
8,241,420,174,71,20,466,90
8,418,434,139,58,20,500,90
8,236,513,176,71,20,557,90
8,208,531,143,61,10,593,90
8,92,623,146,61,20,687,90
8,214,709,147,60,20,784,90
8,100,811,148,60,10,863,90
8,502,900,148,61,10,957,90
8,389,994,148,62,20,1044,90
8,186,1085,147,67,30,1143,90
